
Gurobi 7.5.2 (linux64) logging started Sat Jun 23 17:32:48 2018

Changed value of parameter LogFile to result/ilp/simNo_6-n_100-m_40-s_4-minVAF_0.05-cov_2000-k_1-fn_0.05-fp_0.0001-na_0.15.ILP.gurobiSolverLog
   Prev: gurobi.log  Default: 
Changed value of parameter TimeLimit to 86400.0
   Prev: 1e+100  Min: 0.0  Max: 1e+100  Default: 1e+100
Optimize a model with 1265601 rows, 330440 columns and 3489120 nonzeros
Variable types: 0 continuous, 330440 integer (330440 binary)
Coefficient statistics:
  Matrix range     [3e-03, 3e+00]
  Objective range  [1e-01, 9e+00]
  Bounds range     [1e+00, 1e+00]
  RHS range        [3e-01, 2e+00]
Found heuristic solution: objective -15901.02538
Presolve removed 318543 rows and 213953 columns (presolve time = 6s) ...
Presolve removed 335005 rows and 213953 columns (presolve time = 10s) ...
Presolve removed 335499 rows and 213953 columns (presolve time = 15s) ...
Presolve removed 335932 rows and 213953 columns (presolve time = 20s) ...
Presolve removed 336526 rows and 213953 columns (presolve time = 25s) ...
Presolve removed 336526 rows and 213953 columns (presolve time = 30s) ...
Presolve removed 336526 rows and 213953 columns (presolve time = 35s) ...
Presolve removed 336526 rows and 213953 columns (presolve time = 40s) ...
Presolve removed 336526 rows and 213953 columns (presolve time = 45s) ...
Presolve removed 336526 rows and 213953 columns (presolve time = 50s) ...
Presolve removed 336526 rows and 213953 columns (presolve time = 55s) ...
Presolve removed 336526 rows and 213953 columns (presolve time = 60s) ...
Presolve removed 336526 rows and 213953 columns (presolve time = 68s) ...
Presolve removed 336526 rows and 213953 columns
Presolve time: 68.18s
Presolved: 929075 rows, 116487 columns, 2577125 nonzeros
Variable types: 0 continuous, 116487 integer (116487 binary)
Presolved: 116487 rows, 1045562 columns, 2693612 nonzeros

Presolve removed 116487 rows and 1045562 columns

Root simplex log...

Iteration    Objective       Primal Inf.    Dual Inf.      Time
       0    3.8142011e+00   0.000000e+00   1.041160e+05     79s
    7354   -9.5898369e+01   0.000000e+00   9.434250e+04     80s
   19833   -1.9083878e+02   0.000000e+00   0.000000e+00     86s
   19833   -1.9083878e+02   0.000000e+00   0.000000e+00     88s

Root relaxation: objective -1.908388e+02, 19833 iterations, 16.42 seconds
Total elapsed time = 90.11s
Total elapsed time = 120.77s
Total elapsed time = 131.93s
Total elapsed time = 140.22s

    Nodes    |    Current Node    |     Objective Bounds      |     Work
 Expl Unexpl |  Obj  Depth IntInf | Incumbent    BestBd   Gap | It/Node Time

     0     0 -190.83878    0  694 -15901.025 -190.83878  98.8%     -  150s
H    0     0                    -234.6579425 -190.83878  18.7%     -  162s
     0     0 -196.60480    0  687 -234.65794 -196.60480  16.2%     -  190s
     0     0 -203.56633    0  676 -234.65794 -203.56633  13.2%     -  231s
     0     0 -203.80686    0  662 -234.65794 -203.80686  13.1%     -  262s
     0     0 -203.80868    0  658 -234.65794 -203.80868  13.1%     -  278s
     0     0 -206.69532    0  612 -234.65794 -206.69532  11.9%     -  305s
     0     0 -207.97541    0  513 -234.65794 -207.97541  11.4%     -  327s
     0     0 -208.08693    0  599 -234.65794 -208.08693  11.3%     -  347s
     0     0 -209.36696    0  598 -234.65794 -209.36696  10.8%     -  368s
     0     0 -209.36696    0  597 -234.65794 -209.36696  10.8%     -  377s
     0     0 -209.50936    0  523 -234.65794 -209.50936  10.7%     -  394s
     0     0 -209.57833    0  468 -234.65794 -209.57833  10.7%     -  411s
     0     0 -209.81858    0  518 -234.65794 -209.81858  10.6%     -  430s
     0     0 -209.81858    0  514 -234.65794 -209.81858  10.6%     -  446s
     0     0 -209.83206    0  657 -234.65794 -209.83206  10.6%     -  459s
     0     0 -210.07231    0  661 -234.65794 -210.07231  10.5%     -  478s
     0     0 -210.07231    0  661 -234.65794 -210.07231  10.5%     -  486s
     0     0 -211.25254    0  547 -234.65794 -211.25254  10.0%     -  579s
     0     0 -211.25254    0  560 -234.65794 -211.25254  10.0%     -  593s
     0     0 -211.85920    0  626 -234.65794 -211.85920  9.72%     -  613s
H    0     0                    -231.7749353 -211.85920  8.59%     -  620s
     0     0 -211.94633    0  477 -231.77494 -211.94633  8.56%     -  632s
     0     0 -212.07036    0  680 -231.77494 -212.07036  8.50%     -  647s
     0     0 -212.07037    0  681 -231.77494 -212.07037  8.50%     -  657s
     0     0 -212.94033    0  612 -231.77494 -212.94033  8.13%     -  677s
     0     0 -213.46912    0  601 -231.77494 -213.46912  7.90%     -  696s
     0     0 -213.71611    0  659 -231.77494 -213.71611  7.79%     -  709s
     0     0 -213.89074    0  665 -231.77494 -213.89074  7.72%     -  722s
     0     0 -213.89074    0  685 -231.77494 -213.89074  7.72%     -  732s
     0     0 -215.75620    0  554 -231.77494 -215.75620  6.91%     -  761s
     0     0 -215.75620    0  488 -231.77494 -215.75620  6.91%     -  778s
     0     0 -215.94026    0  614 -231.77494 -215.94026  6.83%     -  796s
     0     0 -215.99175    0  575 -231.77494 -215.99175  6.81%     -  817s
     0     0 -216.02451    0  610 -231.77494 -216.02451  6.80%     -  829s
     0     0 -216.06382    0  612 -231.77494 -216.06382  6.78%     -  844s
     0     0 -216.06382    0  613 -231.77494 -216.06382  6.78%     -  852s
     0     0 -216.30521    0  683 -231.77494 -216.30521  6.67%     -  871s
     0     0 -216.30521    0  689 -231.77494 -216.30521  6.67%     -  889s
     0     0 -217.70714    0  702 -231.77494 -217.70714  6.07%     -  913s
     0     0 -218.10074    0  688 -231.77494 -218.10074  5.90%     -  933s
     0     0 -218.40249    0  778 -231.77494 -218.40249  5.77%     -  946s
     0     0 -218.40249    0  773 -231.77494 -218.40249  5.77%     -  956s
     0     0 -218.40249    0  781 -231.77494 -218.40249  5.77%     -  974s
     0     0 -218.40249    0  782 -231.77494 -218.40249  5.77%     -  990s
     0     0 -218.40249    0  690 -231.77494 -218.40249  5.77%     - 1008s
     0     0 -218.40249    0  691 -231.77494 -218.40249  5.77%     - 1025s
     0     0 -218.40249    0  691 -231.77494 -218.40249  5.77%     - 1038s
     0     0 -219.56894    0  685 -231.77494 -219.56894  5.27%     - 1164s
     0     0 -219.68682    0  686 -231.77494 -219.68682  5.22%     - 1186s
     0     0 -219.68682    0  688 -231.77494 -219.68682  5.22%     - 1198s
     0     0 -219.68682    0  688 -231.77494 -219.68682  5.22%     - 1219s
     0     0 -219.68682    0  688 -231.77494 -219.68682  5.22%     - 1236s
     0     0 -219.81206    0  677 -231.77494 -219.81206  5.16%     - 1258s
     0     0 -220.63884    0  626 -231.77494 -220.63884  4.80%     - 1281s
     0     0 -220.63884    0  627 -231.77494 -220.63884  4.80%     - 1294s
     0     0 -220.63884    0  611 -231.77494 -220.63884  4.80%     - 1315s
     0     0 -220.63884    0  612 -231.77494 -220.63884  4.80%     - 1332s
     0     0 -220.63884    0  614 -231.77494 -220.63884  4.80%     - 1345s
     0     0 -220.63884    0  616 -231.77494 -220.63884  4.80%     - 1363s
     0     0 -220.83946    0  606 -231.77494 -220.83946  4.72%     - 1432s
     0     0 -220.83946    0  626 -231.77494 -220.83946  4.72%     - 1449s
     0     0 -221.11934    0  592 -231.77494 -221.11934  4.60%     - 1468s
     0     0 -221.11934    0  600 -231.77494 -221.11934  4.60%     - 1484s
     0     0 -221.11934    0  605 -231.77494 -221.11934  4.60%     - 1498s
     0     0 -221.11934    0  598 -231.77494 -221.11934  4.60%     - 1559s
     0     0 -221.11934    0  598 -231.77494 -221.11934  4.60%     - 1588s
     0     2 -221.12792    0  596 -231.77494 -221.12792  4.59%     - 1717s
     1     3 -221.14748    1  551 -231.77494 -221.14748  4.59%  1308 1720s
     2     4 -222.03966    2  532 -231.77494 -221.14893  4.58%  1126 1737s
     3     5 -222.53905    3  436 -231.77494 -221.14893  4.58%   798 1741s
     5     7 -223.99082    5  396 -231.77494 -221.14893  4.58%   519 1745s
     6     8 -231.00947    5  122 -231.77494 -221.14893  4.58%   530 1753s
     8     6     cutoff    6      -231.77494 -221.14893  4.58%   417 1755s
    10     8 -225.33789    7  365 -231.77494 -221.14893  4.58%   366 1761s
    12     8 -225.43232    8  392 -231.77494 -221.14893  4.58%   325 1765s
    14    10 -228.31533   10  358 -231.77494 -221.14893  4.58%   292 1773s
    16    10 -228.31533   11  303 -231.77494 -221.14893  4.58%   262 1778s
    17     9     cutoff   11      -231.77494 -221.14893  4.58%   251 1780s
    20    10 -229.66240   13  237 -231.77494 -221.14893  4.58%   219 1785s
    26     8     cutoff    2      -231.77494 -221.15205  4.58%   260 1806s
    27     7     cutoff    1      -231.77494 -222.15447  4.15%   315 1829s
    28     6     cutoff    3      -231.77494 -222.58156  3.97%   324 1837s
    29     7 -226.49317    4  349 -231.77494 -224.06175  3.33%   368 1850s
    31     7     cutoff    5      -231.77494 -224.06175  3.33%   355 1857s
    32     8 -227.93467    6  350 -231.77494 -224.06175  3.33%   348 1861s
    34     8 -229.37618    7  309 -231.77494 -224.06175  3.33%   333 1866s
    36    10 -230.81768    9  279 -231.77494 -224.06175  3.33%   318 1873s
    39     7     cutoff   10      -231.77494 -224.06175  3.33%   298 1875s
    42     4     cutoff    8      -231.77494 -225.47720  2.72%   303 1882s
    44     2     cutoff    7      -231.77494 -229.84323  0.83%   299 1886s

Cutting planes:
  Gomory: 2
  MIR: 1
  Zero half: 125

Explored 47 nodes (81010 simplex iterations) in 1888.61 seconds
Thread count was 1 (of 80 available processors)

Solution count 3: -231.775 -234.658 -15901 

Optimal solution found (tolerance 1.00e-04)
Best objective -2.317749352783e+02, best bound -2.317749352783e+02, gap 0.0000%
